7
2147483647 40 39 82 92 11 72 
40 2147483647 74 10 4 33 53 
39 74 2147483647 55 19 57 66 
82 10 55 2147483647 63 13 12 
92 4 19 63 2147483647 84 29 
11 33 57 13 84 2147483647 9 
72 53 66 12 29 9 2147483647 
